(set-info :smt-lib-version 2.6)
(set-logic QF_LRA)
(set-info :source |
Fully parameterized specification and verification of a synchronizer   
circuit modeling metastability at various levels of refinement.     
A paper describing this specification, to be published in Designing     
Correct Circuits (DCC), 2006, is available from the authors.            

Geoffrey Brown, Indiana University <geobrown@cs.indiana.edu>
Lee Pike, Galois Connections, Inc. <leepike@galois.com>

Translated into CVC format by Leonardo de Moura.

This benchmark was automatically translated into SMT-LIB format from
CVC format using CVC Lite

|)
(set-info :category "industrial")
(set-info :status sat)
(declare-fun x_0 () Bool)
(declare-fun x_1 () Bool)
(declare-fun x_2 () Real)
(declare-fun x_3 () Real)
(declare-fun x_4 () Bool)
(declare-fun x_5 () Bool)
(declare-fun x_6 () Real)
(declare-fun x_7 () Real)
(declare-fun x_8 () Bool)
(declare-fun x_9 () Bool)
(declare-fun x_10 () Real)
(declare-fun x_11 () Real)
(declare-fun x_12 () Bool)
(declare-fun x_13 () Bool)
(declare-fun x_14 () Real)
(declare-fun x_15 () Real)
(declare-fun x_16 () Bool)
(declare-fun x_17 () Bool)
(declare-fun x_18 () Real)
(declare-fun x_19 () Real)
(declare-fun x_20 () Bool)
(declare-fun x_21 () Bool)
(declare-fun x_22 () Real)
(declare-fun x_23 () Real)
(declare-fun x_24 () Real)
(declare-fun x_25 () Real)
(declare-fun x_26 () Real)
(declare-fun x_27 () Real)
(declare-fun x_28 () Real)
(declare-fun x_29 () Real)
(declare-fun x_30 () Real)
(declare-fun x_31 () Real)
(declare-fun x_32 () Real)
(declare-fun x_33 () Real)
(declare-fun x_34 () Real)
(declare-fun x_35 () Real)
(declare-fun x_36 () Real)
(declare-fun x_37 () Real)
(declare-fun x_38 () Real)
(declare-fun x_39 () Real)
(declare-fun x_40 () Real)
(declare-fun x_41 () Real)
(declare-fun x_42 () Real)
(declare-fun x_43 () Real)
(declare-fun x_44 () Real)
(declare-fun x_45 () Real)
(declare-fun x_46 () Real)
(declare-fun x_47 () Real)
(declare-fun x_48 () Real)
(declare-fun x_49 () Real)
(declare-fun x_50 () Real)
(declare-fun x_51 () Real)
(declare-fun x_52 () Real)
(declare-fun x_53 () Real)
(declare-fun x_54 () Real)
(declare-fun x_55 () Real)
(declare-fun x_56 () Real)
(declare-fun x_57 () Real)
(declare-fun x_58 () Real)
(declare-fun x_59 () Real)
(declare-fun x_60 () Real)
(declare-fun x_61 () Real)
(declare-fun x_62 () Real)
(declare-fun x_63 () Bool)
(declare-fun x_64 () Bool)
(declare-fun x_65 () Real)
(declare-fun x_66 () Bool)
(declare-fun x_67 () Bool)
(declare-fun x_68 () Bool)
(declare-fun x_69 () Bool)
(declare-fun x_70 () Bool)
(declare-fun x_71 () Real)
(declare-fun x_72 () Bool)
(declare-fun x_73 () Real)
(declare-fun x_74 () Real)
(declare-fun x_75 () Real)
(declare-fun x_76 () Bool)
(declare-fun x_77 () Real)
(declare-fun x_78 () Bool)
(declare-fun x_79 () Bool)
(declare-fun x_80 () Real)
(declare-fun x_81 () Bool)
(declare-fun x_82 () Real)
(declare-fun x_83 () Real)
(declare-fun x_84 () Real)
(declare-fun x_85 () Bool)
(declare-fun x_86 () Real)
(declare-fun x_87 () Bool)
(declare-fun x_88 () Bool)
(declare-fun x_89 () Real)
(declare-fun x_90 () Bool)
(declare-fun x_91 () Real)
(declare-fun x_92 () Real)
(declare-fun x_93 () Real)
(declare-fun x_94 () Bool)
(declare-fun x_95 () Real)
(declare-fun x_96 () Bool)
(declare-fun x_97 () Bool)
(declare-fun x_98 () Real)
(declare-fun x_99 () Bool)
(declare-fun x_100 () Real)
(declare-fun x_101 () Real)
(declare-fun x_102 () Real)
(declare-fun x_103 () Bool)
(declare-fun x_104 () Real)
(declare-fun x_105 () Bool)
(declare-fun x_106 () Bool)
(declare-fun x_107 () Real)
(declare-fun x_108 () Bool)
(declare-fun x_109 () Real)
(declare-fun x_110 () Real)
(declare-fun x_111 () Real)
(declare-fun x_112 () Bool)
(declare-fun x_113 () Real)
(declare-fun x_114 () Real)
(declare-fun x_115 () Bool)
(declare-fun x_116 () Bool)
(declare-fun x_117 () Bool)
(declare-fun x_118 () Bool)
(declare-fun x_119 () Real)
(declare-fun x_120 () Bool)
(declare-fun x_121 () Real)
(declare-fun x_122 () Real)
(declare-fun x_123 () Real)
(declare-fun x_124 () Real)
(assert (let ((?v_12 (ite (<= x_24 x_25) x_24 x_25)) (?v_10 (ite (<= x_33 x_34) x_33 x_34)) (?v_8 (ite (<= x_38 x_39) x_38 x_39)) (?v_6 (ite (<= x_43 x_44) x_43 x_44)) (?v_4 (ite (<= x_48 x_49) x_48 x_49)) (?v_2 (ite (<= x_53 x_54) x_53 x_54)) (?v_0 (ite (<= x_58 x_59) x_58 x_59)) (?v_89 (= x_35 x_29)) (?v_91 (= x_25 x_34)) (?v_93 (= x_37 x_31)) (?v_87 (= x_24 x_33))) (let ((?v_94 (not ?v_87)) (?v_97 (= x_36 x_30)) (?v_84 (= x_63 x_64)) (?v_85 (= x_7 x_3)) (?v_88 (ite (<= x_25 x_24) x_25 x_24)) (?v_75 (= x_40 x_35)) (?v_77 (= x_34 x_39)) (?v_79 (= x_42 x_37)) (?v_73 (= x_33 x_38))) (let ((?v_80 (not ?v_73)) (?v_83 (= x_41 x_36)) (?v_70 (= x_76 x_63)) (?v_71 (= x_11 x_7)) (?v_74 (ite (<= x_34 x_33) x_34 x_33)) (?v_61 (= x_45 x_40)) (?v_63 (= x_39 x_44)) (?v_65 (= x_47 x_42)) (?v_59 (= x_38 x_43))) (let ((?v_66 (not ?v_59)) (?v_69 (= x_46 x_41)) (?v_56 (= x_85 x_76)) (?v_57 (= x_15 x_11)) (?v_60 (ite (<= x_39 x_38) x_39 x_38)) (?v_47 (= x_50 x_45)) (?v_49 (= x_44 x_49)) (?v_51 (= x_52 x_47)) (?v_45 (= x_43 x_48))) (let ((?v_52 (not ?v_45)) (?v_55 (= x_51 x_46)) (?v_42 (= x_94 x_85)) (?v_43 (= x_19 x_15)) (?v_46 (ite (<= x_44 x_43) x_44 x_43)) (?v_33 (= x_55 x_50)) (?v_35 (= x_49 x_54)) (?v_37 (= x_57 x_52)) (?v_31 (= x_48 x_53))) (let ((?v_38 (not ?v_31)) (?v_41 (= x_56 x_51)) (?v_28 (= x_103 x_94)) (?v_29 (= x_23 x_19)) (?v_32 (ite (<= x_49 x_48) x_49 x_48)) (?v_19 (= x_60 x_55)) (?v_21 (= x_54 x_59)) (?v_23 (= x_62 x_57)) (?v_17 (= x_53 x_58))) (let ((?v_24 (not ?v_17)) (?v_27 (= x_61 x_56)) (?v_14 (= x_112 x_103)) (?v_15 (= x_113 x_23)) (?v_18 (ite (<= x_54 x_53) x_54 x_53)) (?v_16 (= x_116 x_21)) (?v_26 (= x_23 x_113)) (?v_30 (= x_21 x_17)) (?v_40 (= x_19 x_23)) (?v_44 (= x_17 x_13)) (?v_54 (= x_15 x_19)) (?v_58 (= x_13 x_9)) (?v_68 (= x_11 x_15)) (?v_72 (= x_9 x_5)) (?v_82 (= x_7 x_11)) (?v_86 (= x_5 x_1)) (?v_96 (= x_3 x_7)) (?v_20 (<= x_57 ?v_2)) (?v_34 (<= x_52 ?v_4)) (?v_48 (<= x_47 ?v_6)) (?v_62 (<= x_42 ?v_8)) (?v_76 (<= x_37 ?v_10)) (?v_90 (<= x_31 ?v_12)) (?v_1 (+ ?v_0 x_28)) (?v_22 (+ ?v_2 x_32)) (?v_3 (+ ?v_2 x_28)) (?v_36 (+ ?v_4 x_32)) (?v_5 (+ ?v_4 x_28)) (?v_50 (+ ?v_6 x_32)) (?v_7 (+ ?v_6 x_28)) (?v_64 (+ ?v_8 x_32)) (?v_9 (+ ?v_8 x_28)) (?v_78 (+ ?v_10 x_32)) (?v_11 (+ ?v_10 x_28)) (?v_92 (+ ?v_12 x_32)) (?v_13 (+ ?v_12 x_28))) (let ((?v_25 (+ ?v_18 x_28)) (?v_39 (+ ?v_32 x_28)) (?v_53 (+ ?v_46 x_28)) (?v_67 (+ ?v_60 x_28)) (?v_81 (+ ?v_74 x_28)) (?v_95 (+ ?v_88 x_28))) (and (and (and (and (and (and (and (and (and (and (and (and (and (and (and (and (and (and (and (and (and (and (and (and (and (and (and (and (and (and (and (and (and (and (and (and (and (and (and (and (and (and (and (and (and (and (and (and (and (and (and (and (and (and (and (and (and (and (and (and (and (and (and (and (and (and (and (and (and (and (and (and (and (and (and (and (and (and (and (and (and (and (and (and (and (and (and (and (and (and (and (and (and (and (and (> x_26 0) (> x_27 0)) (>= x_28 0)) (< x_28 x_26)) (< x_28 x_27)) (>= x_32 0)) (< x_32 x_26)) (< x_32 x_27)) (or (= x_20 x_21) (= x_22 x_23))) (or (= x_16 x_17) (= x_18 x_19))) (or (= x_12 x_13) (= x_14 x_15))) (or (= x_8 x_9) (= x_10 x_11))) (or (= x_4 x_5) (= x_6 x_7))) (or (= x_0 x_1) (= x_2 x_3))) (or (<= x_60 ?v_0) (<= (- (+ x_60 x_27) x_28) x_59))) (or (<= x_61 ?v_0) (<= (- (+ x_61 x_27) x_28) x_59))) (or (<= x_62 ?v_0) (<= (- (+ x_62 x_26) x_32) x_58))) (<= x_62 (+ ?v_0 x_32))) (<= x_61 ?v_1)) (<= x_60 ?v_1)) (<= ?v_0 x_58)) (<= ?v_0 x_59)) (or (<= x_55 ?v_2) (<= (- (+ x_55 x_27) x_28) x_54))) (or (<= x_56 ?v_2) (<= (- (+ x_56 x_27) x_28) x_54))) (or ?v_20 (<= (- (+ x_57 x_26) x_32) x_53))) (<= x_57 ?v_22)) (<= x_56 ?v_3)) (<= x_55 ?v_3)) (<= ?v_2 x_53)) (<= ?v_2 x_54)) (or (<= x_50 ?v_4) (<= (- (+ x_50 x_27) x_28) x_49))) (or (<= x_51 ?v_4) (<= (- (+ x_51 x_27) x_28) x_49))) (or ?v_34 (<= (- (+ x_52 x_26) x_32) x_48))) (<= x_52 ?v_36)) (<= x_51 ?v_5)) (<= x_50 ?v_5)) (<= ?v_4 x_48)) (<= ?v_4 x_49)) (or (<= x_45 ?v_6) (<= (- (+ x_45 x_27) x_28) x_44))) (or (<= x_46 ?v_6) (<= (- (+ x_46 x_27) x_28) x_44))) (or ?v_48 (<= (- (+ x_47 x_26) x_32) x_43))) (<= x_47 ?v_50)) (<= x_46 ?v_7)) (<= x_45 ?v_7)) (<= ?v_6 x_43)) (<= ?v_6 x_44)) (or (<= x_40 ?v_8) (<= (- (+ x_40 x_27) x_28) x_39))) (or (<= x_41 ?v_8) (<= (- (+ x_41 x_27) x_28) x_39))) (or ?v_62 (<= (- (+ x_42 x_26) x_32) x_38))) (<= x_42 ?v_64)) (<= x_41 ?v_9)) (<= x_40 ?v_9)) (<= ?v_8 x_38)) (<= ?v_8 x_39)) (or (<= x_35 ?v_10) (<= (- (+ x_35 x_27) x_28) x_34))) (or (<= x_36 ?v_10) (<= (- (+ x_36 x_27) x_28) x_34))) (or ?v_76 (<= (- (+ x_37 x_26) x_32) x_33))) (<= x_37 ?v_78)) (<= x_36 ?v_11)) (<= x_35 ?v_11)) (<= ?v_10 x_33)) (<= ?v_10 x_34)) (or (<= x_29 ?v_12) (<= (- (+ x_29 x_27) x_28) x_25))) (or (<= x_30 ?v_12) (<= (- (+ x_30 x_27) x_28) x_25))) (or ?v_90 (<= (- (+ x_31 x_26) x_32) x_24))) (<= x_31 ?v_92)) (<= x_30 ?v_13)) (<= x_29 ?v_13)) (<= ?v_12 x_24)) (<= ?v_12 x_25)) (or (and (and (and (and (and (and (and (and (and (= x_114 0) (= x_115 x_108)) (= ?v_2 x_53)) (<= (+ ?v_2 x_26) x_58)) (or ?v_16 (= x_116 x_20))) (= x_117 x_105)) (= x_118 x_106)) (= x_59 x_54)) ?v_14) ?v_15) (and (and (and (and (and (and (and (and (and (= x_114 1) (= x_118 x_105)) (= ?v_2 x_54)) (<= (+ ?v_2 x_27) x_59)) (or (and (and (= x_119 0) ?v_14) ?v_15) (and (and (= x_119 1) (= x_103 x_106)) (= x_112 (not x_103))))) (= x_120 x_108)) (= x_115 x_20)) (= x_121 x_22)) (= x_58 x_53)) ?v_16))) (or (or (and (and (and (= x_122 0) ?v_24) (or (not (<= x_55 ?v_18)) (= x_120 x_103))) ?v_19) (and (and (and (= x_122 1) ?v_17) (xor x_103 x_112)) (= x_60 ?v_25))) (and (and (and (= x_122 2) ?v_17) (= x_103 x_112)) ?v_19))) (or (or (and (and (and (= x_123 0) (not ?v_21)) (or (not ?v_20) (= x_117 x_21))) ?v_23) (and (and (and (= x_123 1) ?v_21) (xor x_21 x_116)) (= x_62 ?v_22))) (and (and (and (= x_123 2) ?v_21) (= x_21 x_116)) ?v_23))) (or (or (and (and (and (= x_124 0) ?v_24) (or (not (<= x_56 ?v_18)) (= x_121 x_23))) ?v_27) (and (and (and (= x_124 1) ?v_17) (not ?v_26)) (= x_61 ?v_25))) (and (and (and (= x_124 2) ?v_17) ?v_26) ?v_27))) (or (and (and (and (and (and (and (and (and (and (= x_104 0) (= x_20 x_99)) (= ?v_4 x_48)) (<= (+ ?v_4 x_26) x_53)) (or ?v_30 (= x_21 x_16))) (= x_105 x_96)) (= x_106 x_97)) (= x_54 x_49)) ?v_28) ?v_29) (and (and (and (and (and (and (and (and (and (= x_104 1) (= x_106 x_96)) (= ?v_4 x_49)) (<= (+ ?v_4 x_27) x_54)) (or (and (and (= x_107 0) ?v_28) ?v_29) (and (and (= x_107 1) (= x_94 x_97)) (= x_103 (not x_94))))) (= x_108 x_99)) (= x_20 x_16)) (= x_22 x_18)) (= x_53 x_48)) ?v_30))) (or (or (and (and (and (= x_109 0) ?v_38) (or (not (<= x_50 ?v_32)) (= x_108 x_94))) ?v_33) (and (and (and (= x_109 1) ?v_31) (xor x_94 x_103)) (= x_55 ?v_39))) (and (and (and (= x_109 2) ?v_31) (= x_94 x_103)) ?v_33))) (or (or (and (and (and (= x_110 0) (not ?v_35)) (or (not ?v_34) (= x_105 x_17))) ?v_37) (and (and (and (= x_110 1) ?v_35) (xor x_17 x_21)) (= x_57 ?v_36))) (and (and (and (= x_110 2) ?v_35) (= x_17 x_21)) ?v_37))) (or (or (and (and (and (= x_111 0) ?v_38) (or (not (<= x_51 ?v_32)) (= x_22 x_19))) ?v_41) (and (and (and (= x_111 1) ?v_31) (not ?v_40)) (= x_56 ?v_39))) (and (and (and (= x_111 2) ?v_31) ?v_40) ?v_41))) (or (and (and (and (and (and (and (and (and (and (= x_95 0) (= x_16 x_90)) (= ?v_6 x_43)) (<= (+ ?v_6 x_26) x_48)) (or ?v_44 (= x_17 x_12))) (= x_96 x_87)) (= x_97 x_88)) (= x_49 x_44)) ?v_42) ?v_43) (and (and (and (and (and (and (and (and (and (= x_95 1) (= x_97 x_87)) (= ?v_6 x_44)) (<= (+ ?v_6 x_27) x_49)) (or (and (and (= x_98 0) ?v_42) ?v_43) (and (and (= x_98 1) (= x_85 x_88)) (= x_94 (not x_85))))) (= x_99 x_90)) (= x_16 x_12)) (= x_18 x_14)) (= x_48 x_43)) ?v_44))) (or (or (and (and (and (= x_100 0) ?v_52) (or (not (<= x_45 ?v_46)) (= x_99 x_85))) ?v_47) (and (and (and (= x_100 1) ?v_45) (xor x_85 x_94)) (= x_50 ?v_53))) (and (and (and (= x_100 2) ?v_45) (= x_85 x_94)) ?v_47))) (or (or (and (and (and (= x_101 0) (not ?v_49)) (or (not ?v_48) (= x_96 x_13))) ?v_51) (and (and (and (= x_101 1) ?v_49) (xor x_13 x_17)) (= x_52 ?v_50))) (and (and (and (= x_101 2) ?v_49) (= x_13 x_17)) ?v_51))) (or (or (and (and (and (= x_102 0) ?v_52) (or (not (<= x_46 ?v_46)) (= x_18 x_15))) ?v_55) (and (and (and (= x_102 1) ?v_45) (not ?v_54)) (= x_51 ?v_53))) (and (and (and (= x_102 2) ?v_45) ?v_54) ?v_55))) (or (and (and (and (and (and (and (and (and (and (= x_86 0) (= x_12 x_81)) (= ?v_8 x_38)) (<= (+ ?v_8 x_26) x_43)) (or ?v_58 (= x_13 x_8))) (= x_87 x_78)) (= x_88 x_79)) (= x_44 x_39)) ?v_56) ?v_57) (and (and (and (and (and (and (and (and (and (= x_86 1) (= x_88 x_78)) (= ?v_8 x_39)) (<= (+ ?v_8 x_27) x_44)) (or (and (and (= x_89 0) ?v_56) ?v_57) (and (and (= x_89 1) (= x_76 x_79)) (= x_85 (not x_76))))) (= x_90 x_81)) (= x_12 x_8)) (= x_14 x_10)) (= x_43 x_38)) ?v_58))) (or (or (and (and (and (= x_91 0) ?v_66) (or (not (<= x_40 ?v_60)) (= x_90 x_76))) ?v_61) (and (and (and (= x_91 1) ?v_59) (xor x_76 x_85)) (= x_45 ?v_67))) (and (and (and (= x_91 2) ?v_59) (= x_76 x_85)) ?v_61))) (or (or (and (and (and (= x_92 0) (not ?v_63)) (or (not ?v_62) (= x_87 x_9))) ?v_65) (and (and (and (= x_92 1) ?v_63) (xor x_9 x_13)) (= x_47 ?v_64))) (and (and (and (= x_92 2) ?v_63) (= x_9 x_13)) ?v_65))) (or (or (and (and (and (= x_93 0) ?v_66) (or (not (<= x_41 ?v_60)) (= x_14 x_11))) ?v_69) (and (and (and (= x_93 1) ?v_59) (not ?v_68)) (= x_46 ?v_67))) (and (and (and (= x_93 2) ?v_59) ?v_68) ?v_69))) (or (and (and (and (and (and (and (and (and (and (= x_77 0) (= x_8 x_72)) (= ?v_10 x_33)) (<= (+ ?v_10 x_26) x_38)) (or ?v_72 (= x_9 x_4))) (= x_78 x_67)) (= x_79 x_69)) (= x_39 x_34)) ?v_70) ?v_71) (and (and (and (and (and (and (and (and (and (= x_77 1) (= x_79 x_67)) (= ?v_10 x_34)) (<= (+ ?v_10 x_27) x_39)) (or (and (and (= x_80 0) ?v_70) ?v_71) (and (and (= x_80 1) (= x_63 x_69)) (= x_76 (not x_63))))) (= x_81 x_72)) (= x_8 x_4)) (= x_10 x_6)) (= x_38 x_33)) ?v_72))) (or (or (and (and (and (= x_82 0) ?v_80) (or (not (<= x_35 ?v_74)) (= x_81 x_63))) ?v_75) (and (and (and (= x_82 1) ?v_73) (xor x_63 x_76)) (= x_40 ?v_81))) (and (and (and (= x_82 2) ?v_73) (= x_63 x_76)) ?v_75))) (or (or (and (and (and (= x_83 0) (not ?v_77)) (or (not ?v_76) (= x_78 x_5))) ?v_79) (and (and (and (= x_83 1) ?v_77) (xor x_5 x_9)) (= x_42 ?v_78))) (and (and (and (= x_83 2) ?v_77) (= x_5 x_9)) ?v_79))) (or (or (and (and (and (= x_84 0) ?v_80) (or (not (<= x_36 ?v_74)) (= x_10 x_7))) ?v_83) (and (and (and (= x_84 1) ?v_73) (not ?v_82)) (= x_41 ?v_81))) (and (and (and (= x_84 2) ?v_73) ?v_82) ?v_83))) (or (and (and (and (and (and (and (and (and (and (= x_65 0) (= x_4 x_66)) (= ?v_12 x_24)) (<= (+ ?v_12 x_26) x_33)) (or ?v_86 (= x_5 x_0))) (= x_67 x_68)) (= x_69 x_70)) (= x_34 x_25)) ?v_84) ?v_85) (and (and (and (and (and (and (and (and (and (= x_65 1) (= x_69 x_68)) (= ?v_12 x_25)) (<= (+ ?v_12 x_27) x_34)) (or (and (and (= x_71 0) ?v_84) ?v_85) (and (and (= x_71 1) (= x_64 x_70)) (= x_63 (not x_64))))) (= x_72 x_66)) (= x_4 x_0)) (= x_6 x_2)) (= x_33 x_24)) ?v_86))) (or (or (and (and (and (= x_73 0) ?v_94) (or (not (<= x_29 ?v_88)) (= x_72 x_64))) ?v_89) (and (and (and (= x_73 1) ?v_87) (xor x_64 x_63)) (= x_35 ?v_95))) (and (and (and (= x_73 2) ?v_87) (= x_64 x_63)) ?v_89))) (or (or (and (and (and (= x_74 0) (not ?v_91)) (or (not ?v_90) (= x_67 x_1))) ?v_93) (and (and (and (= x_74 1) ?v_91) (xor x_1 x_5)) (= x_37 ?v_92))) (and (and (and (= x_74 2) ?v_91) (= x_1 x_5)) ?v_93))) (or (or (and (and (and (= x_75 0) ?v_94) (or (not (<= x_30 ?v_88)) (= x_6 x_3))) ?v_97) (and (and (and (= x_75 1) ?v_87) (not ?v_96)) (= x_36 ?v_95))) (and (and (and (= x_75 2) ?v_87) ?v_96) ?v_97))) (xor x_115 x_116)) (not (= x_121 x_113))))))))))))
(check-sat)
(exit)
